(declare-fun var0 () String)
(assert (str.in.re var0 (re.++ (re.* (re.+ (str.to.re "$$$"))) (re.++ (re.* (re.* (str.to.re "#"))) (re.++ (re.+ (re.union (str.to.re "!!") (str.to.re """"""""))) (re.++ (re.+ (re.union (str.to.re "Y") (str.to.re "ZZ"))) (re.++ (re.* (re.+ (str.to.re "XX"))) (re.++ (re.+ (re.union (str.to.re "VVV") (str.to.re "W"))) (re.++ (re.+ (re.* (str.to.re "UU"))) (re.++ (re.+ (re.+ (str.to.re "T"))) (re.++ (re.+ (re.+ (str.to.re "SS"))) (re.++ (re.+ (re.union (str.to.re "QQ") (str.to.re "R"))) (re.++ (re.+ (re.+ (str.to.re "PP"))) (re.++ (re.+ (re.union (str.to.re "N") (str.to.re "O"))) (re.++ (re.* (re.+ (str.to.re "MMM"))) (re.++ (re.* (re.+ (str.to.re "L"))) (re.++ (re.* (re.+ (str.to.re "KKK"))) (re.++ (re.+ (re.* (str.to.re "JJ"))) (re.++ (re.* (re.* (str.to.re "I"))) (re.++ (re.union (re.union (str.to.re "EEE") (str.to.re "FFF")) (re.union (str.to.re "GGG") (str.to.re "HHH"))) (re.++ (re.union (re.+ (str.to.re "BB")) (re.union (str.to.re "CCC") (str.to.re "D"))) (re.++ (re.union (re.* (str.to.re "y")) (re.union (str.to.re "zzz") (str.to.re "AAA"))) (re.++ (re.union (re.+ (str.to.re "www")) (re.+ (str.to.re "x"))) (re.++ (re.* (re.union (str.to.re "uu") (str.to.re "vvv"))) (re.++ (re.+ (re.+ (str.to.re "t"))) (re.++ (re.+ (re.* (str.to.re "sss"))) (re.++ (re.* (re.union (str.to.re "qq") (str.to.re "rrr"))) (re.++ (re.union (re.union (str.to.re "n") (str.to.re "oo")) (re.* (str.to.re "ppp"))) (re.++ (re.union (re.* (str.to.re "lll")) (re.+ (str.to.re "m"))) (re.++ (re.union (re.* (str.to.re "jj")) (re.+ (str.to.re "k"))) (re.++ (re.+ (re.* (str.to.re "ii"))) (re.++ (re.+ (re.+ (str.to.re "h"))) (re.++ (re.+ (re.union (str.to.re "ff") (str.to.re "gg"))) (re.++ (re.* (re.* (str.to.re "e"))) (re.++ (re.union (re.+ (str.to.re "c")) (re.+ (str.to.re "dd"))) (re.++ (re.+ (re.union (str.to.re "aaa") (str.to.re "bbb"))) (re.++ (re.+ (re.* (str.to.re "99"))) (re.++ (re.+ (re.* (str.to.re "8"))) (re.++ (re.* (re.* (str.to.re "77"))) (re.++ (re.+ (re.union (str.to.re "5") (str.to.re "6"))) (re.++ (re.+ (re.union (str.to.re "3") (str.to.re "4"))) (re.++ (re.+ (re.+ (str.to.re "222"))) (re.union (re.+ (str.to.re "00")) (re.+ (str.to.re "1")))))))))))))))))))))))))))))))))))))))))))))
(assert (not (str.in.re var0 (re.++ (re.+ (re.union (str.to.re "(") (str.to.re ")"))) (re.++ (re.+ (re.union (str.to.re "&&&") (str.to.re "'"))) (re.++ (re.union (re.union (str.to.re "###") (str.to.re "$")) (re.+ (str.to.re "%%"))) (re.++ (re.* (re.union (str.to.re "!") (str.to.re """"""))) (re.++ (re.+ (re.+ (str.to.re "ZZZ"))) (re.++ (re.+ (re.* (str.to.re "YYY"))) (re.++ (re.union (re.union (str.to.re "V") (str.to.re "WWW")) (re.+ (str.to.re "XX"))) (re.++ (re.union (re.+ (str.to.re "S")) (re.union (str.to.re "TT") (str.to.re "U"))) (re.++ (re.union (re.* (str.to.re "QQQ")) (re.* (str.to.re "RR"))) (re.++ (re.* (re.+ (str.to.re "PPP"))) (re.++ (re.+ (re.+ (str.to.re "OOO"))) (re.++ (re.union (re.union (str.to.re "K") (str.to.re "LLL")) (re.union (str.to.re "M") (str.to.re "NN"))) (re.++ (re.+ (re.* (str.to.re "JJ"))) (re.++ (re.+ (re.* (str.to.re "II"))) (re.++ (re.* (re.union (str.to.re "GGG") (str.to.re "HH"))) (re.++ (re.+ (re.union (str.to.re "EE") (str.to.re "FF"))) (re.++ (re.union (re.+ (str.to.re "C")) (re.* (str.to.re "D"))) (re.++ (re.union (re.* (str.to.re "z")) (re.union (str.to.re "A") (str.to.re "BB"))) (re.++ (re.+ (re.* (str.to.re "y"))) (re.++ (re.* (re.+ (str.to.re "xxx"))) (re.++ (re.+ (re.* (str.to.re "ww"))) (re.++ (re.union (re.union (str.to.re "ttt") (str.to.re "uu")) (re.* (str.to.re "vv"))) (re.++ (re.+ (re.+ (str.to.re "sss"))) (re.++ (re.union (re.+ (str.to.re "pp")) (re.union (str.to.re "qqq") (str.to.re "rrr"))) (re.++ (re.* (re.+ (str.to.re "oo"))) (re.++ (re.* (re.+ (str.to.re "nnn"))) (re.++ (re.* (re.* (str.to.re "mm"))) (re.++ (re.+ (re.+ (str.to.re "lll"))) (re.++ (re.+ (re.* (str.to.re "kkk"))) (re.++ (re.* (re.union (str.to.re "i") (str.to.re "j"))) (re.++ (re.+ (re.* (str.to.re "h"))) (re.++ (re.union (re.* (str.to.re "ee")) (re.union (str.to.re "f") (str.to.re "gg"))) (re.++ (re.* (re.* (str.to.re "d"))) (re.++ (re.+ (re.+ (str.to.re "cc"))) (re.++ (re.* (re.+ (str.to.re "bb"))) (re.++ (re.union (re.* (str.to.re "99")) (re.* (str.to.re "aa"))) (re.++ (re.+ (re.+ (str.to.re "8"))) (re.++ (re.* (re.+ (str.to.re "777"))) (re.++ (re.+ (re.+ (str.to.re "666"))) (re.++ (re.union (re.+ (str.to.re "333")) (re.union (str.to.re "444") (str.to.re "555"))) (re.union (re.+ (str.to.re "0")) (re.union (str.to.re "1") (str.to.re "2"))))))))))))))))))))))))))))))))))))))))))))))
(check-sat)